WARNING: for repeatability, setting FPU to use double precision
============================[ Problem Statistics ]=============================
|                                                                             |
|  Number of variables:         27899                                         |
|  Number of clauses:          330126                                         |
|  Parse time:                   0.15 s                                       |
|  Eliminated clauses:           0.02 Mb                                      |
|  Simplification time:          0.16 s                                       |
|                                                                             |
============================[ Search Statistics ]==============================
| Conflicts |          ORIGINAL         |          LEARNT          | Progress |
|           |    Vars  Clauses Literals |    Limit  Clauses Lit/Cl |          |
===============================================================================
|       100 |    2887    33236    91773 |    12186      100     17 | 84.956 % |
|       250 |    2887    33236    91773 |    13405      250     24 | 84.956 % |
|       475 |    2887    33236    91773 |    14745      475     24 | 84.956 % |
|       812 |    2887    33236    91773 |    16220      812     31 | 84.956 % |
|      1318 |    2887    33236    91773 |    17842     1318     74 | 84.956 % |
|      2077 |    2887    33236    91773 |    19626     2077     62 | 84.956 % |
|      3216 |    2887    33236    91773 |    21589     3216     59 | 84.956 % |
|      4924 |    2887    33236    91773 |    23748     4924     58 | 84.956 % |
|      7486 |    2887    33236    91773 |    26122     7486     55 | 84.956 % |
|     11330 |    2887    33236    91773 |    28735    11330     57 | 84.956 % |
|     17096 |    2887    33236    91773 |    31608    17096     65 | 84.956 % |
|     25745 |    2887    33236    91773 |    34769    25745     66 | 84.956 % |
|     38719 |    2887    33236    91773 |    38246    38719     73 | 84.956 % |
|     58180 |    2887    33236    91773 |    42071    58180     73 | 84.956 % |
|     87372 |    2887    33236    91773 |    46278    34516     63 | 84.956 % |
===============================================================================
restarts              : 317
conflicts             : 117698         (23685 /sec)
decisions             : 458795         (0.00 % random) (92326 /sec)
propagations          : 8974164        (1805924 /sec)
conflict literals     : 9711309        (6.58 % deleted)
Memory used           : 92.00 MB
CPU time              : 4.96929 s

SATISFIABLE
WARNING: for repeatability, setting FPU to use double precision
============================[ Problem Statistics ]=============================
|                                                                             |
|  Number of variables:         27899                                         |
|  Number of clauses:          330126                                         |
|  Parse time:                   0.10 s                                       |
|  Eliminated clauses:           0.02 Mb                                      |
|  Simplification time:          0.11 s                                       |
|                                                                             |
============================[ Search Statistics ]==============================
| Conflicts |          ORIGINAL         |          LEARNT          | Progress |
|           |    Vars  Clauses Literals |    Limit  Clauses Lit/Cl |          |
===============================================================================
|       100 |    2887    33236    91773 |    12186      100     17 | 84.956 % |
|       250 |    2887    33236    91773 |    13405      250     24 | 84.956 % |
|       475 |    2887    33236    91773 |    14745      475     24 | 84.956 % |
|       812 |    2887    33236    91773 |    16220      812     31 | 84.956 % |
|      1318 |    2887    33236    91773 |    17842     1318     74 | 84.956 % |
|      2077 |    2887    33236    91773 |    19626     2077     62 | 84.956 % |
|      3216 |    2887    33236    91773 |    21589     3216     59 | 84.956 % |
|      4924 |    2887    33236    91773 |    23748     4924     58 | 84.956 % |
|      7486 |    2887    33236    91773 |    26122     7486     55 | 84.956 % |
|     11330 |    2887    33236    91773 |    28735    11330     57 | 84.956 % |
|     17096 |    2887    33236    91773 |    31608    17096     65 | 84.956 % |
|     25745 |    2887    33236    91773 |    34769    25745     66 | 84.956 % |
|     38719 |    2887    33236    91773 |    38246    38719     73 | 84.956 % |
|     58180 |    2887    33236    91773 |    42071    58180     73 | 84.956 % |
|     87372 |    2887    33236    91773 |    46278    34516     63 | 84.956 % |
===============================================================================
restarts              : 317
conflicts             : 117698         (33858 /sec)
decisions             : 458795         (0.00 % random) (131981 /sec)
propagations          : 8974164        (2581582 /sec)
conflict literals     : 9711309        (6.58 % deleted)
Memory used           : 92.00 MB
CPU time              : 3.47623 s

SATISFIABLE
